
Gurobi 6.5.2 (win64) logging started 07/23/16 03:31:40


Gurobi 6.5.2 (win64) logging started 07/23/16 03:31:40

Optimize a model with 22737 rows, 1421 columns and 49481 nonzeros
Coefficient statistics:
  Matrix range    [4e-06, 1e+03]
  Objective range [1e+00, 1e+00]
  Bounds range    [1e+00, 1e+00]
  RHS range       [1e+00, 1e+03]
Found heuristic solution: objective 608.652
Presolve removed 22710 rows and 1394 columns
Presolve time: 0.01s
Presolved: 27 rows, 27 columns, 81 nonzeros
Found heuristic solution: objective 458.7786183
Variable types: 27 continuous, 0 integer (0 binary)

Root relaxation: objective 2.184104e+02, 20 iterations, 0.00 seconds

    Nodes    |    Current Node    |     Objective Bounds      |     Work
 Expl Unexpl |  Obj  Depth IntInf | Incumbent    BestBd   Gap | It/Node Time

*    0     0               0     218.4104307  218.41043  0.00%     -    0s

Explored 0 nodes (20 simplex iterations) in 0.02 seconds
Thread count was 8 (of 8 available processors)

Optimal solution found (tolerance 1.00e-04)
Best objective 2.184104307483e+02, best bound 2.184104307483e+02, gap 0.0%

Wrote requested result file 'H2\instance26\\Results26EC_Sol2.lp'

